p cnf 12 50 
6 11 1 0
4 2 7 0
12 6 5 0
5 -8 -3 0
-9 -1 -7 0
10 -3 9 0
9 5 -6 0
3 9 2 0
9 7 6 0
10 -5 3 0
2 -8 11 0
8 -7 -5 0
-11 7 8 0
5 12 7 0
-8 2 -12 0
-9 -1 2 0
-3 -7 1 0
3 -9 8 0
6 2 -3 0
7 12 11 0
5 -10 -11 0
-3 -9 -7 0
8 -12 5 0
-2 9 -1 0
-11 2 12 0
-3 -12 8 0
-12 -9 2 0
-5 9 -10 0
11 9 8 0
11 2 5 0
7 -11 -12 0
2 -5 -11 0
3 12 -4 0
-9 -5 -12 0
-10 8 7 0
-4 6 -1 0
4 -7 -3 0
-12 -11 -3 0
-6 -11 9 0
-8 5 10 0
7 -11 -4 0
-7 -12 3 0
-4 -10 -7 0
-10 6 -2 0
-10 8 7 0
9 7 10 0
-3 -12 5 0
10 -6 4 0
10 -5 -1 0
5 -10 -9 0
